
Gurobi 9.5.2 (win64) logging started Tue Oct 31 15:46:03 2023

Set parameter LogFile to value "./ccga_results/2023-10-31 15-46-02-005/MSP_TimeStampConvert_gurobi_log.txt"
Set parameter TimeLimit to value 7200

Gurobi 9.5.2 (win64) logging started Tue Oct 31 15:46:03 2023

Set parameter LogFile to value "./ccga_results/2023-10-31 15-46-02-005/MSP_TimeStampConvert_gurobi_log.txt"
Set parameter TimeLimit to value 7200
Gurobi Optimizer version 9.5.2 build v9.5.2rc0 (win64)
Thread count: 10 physical cores, 20 logical processors, using up to 20 threads
Optimize a model with 1752 rows, 1321 columns and 4350 nonzeros
Model fingerprint: 0x61917b67
Variable types: 25 continuous, 1296 integer (1296 binary)
Coefficient statistics:
  Matrix range     [1e+00, 1e+00]
  Objective range  [1e+00, 1e+00]
  Bounds range     [1e+03, 1e+03]
  RHS range        [1e+00, 1e+00]
Found heuristic solution: objective 24000.000000

Explored 0 nodes (0 simplex iterations) in 0.00 seconds (0.00 work units)
Thread count was 1 (of 20 available processors)

Solution count 1: 24000 

Optimal solution found (tolerance 5.00e-02)
Best objective 2.400000000000e+04, best bound 2.400000000000e+04, gap 0.0000%

User-callback calls 21, time in user-callback 0.00 sec
Set parameter TimeLimit to value 7199
Gurobi Optimizer version 9.5.2 build v9.5.2rc0 (win64)
Thread count: 10 physical cores, 20 logical processors, using up to 20 threads
Optimize a model with 5581 rows, 2401 columns and 17303 nonzeros
Model fingerprint: 0x114f9f0a
Variable types: 1057 continuous, 1344 integer (1344 binary)
Coefficient statistics:
  Matrix range     [5e-03, 8e+02]
  Objective range  [1e+00, 1e+00]
  Bounds range     [1e+03, 1e+03]
  RHS range        [1e+00, 1e+08]

MIP start from previous solve did not produce a new incumbent solution

Presolve removed 478 rows and 156 columns
Presolve time: 0.05s
Presolved: 5103 rows, 2245 columns, 16071 nonzeros
Variable types: 985 continuous, 1260 integer (1260 binary)
Found heuristic solution: objective 22366.932392
Found heuristic solution: objective 23920.259253

Explored 0 nodes (0 simplex iterations) in 0.07 seconds (0.11 work units)
Thread count was 20 (of 20 available processors)

Solution count 2: 23920.3 22366.9 

Optimal solution found (tolerance 5.00e-02)
Best objective 2.392025925315e+04, best bound 2.400000000000e+04, gap 0.3334%

User-callback calls 458, time in user-callback 0.00 sec
Gurobi Optimizer version 9.5.2 build v9.5.2rc0 (win64)
Thread count: 10 physical cores, 20 logical processors, using up to 20 threads
Optimize a model with 9410 rows, 3481 columns and 30256 nonzeros
Model fingerprint: 0xa5fa905e
Variable types: 2089 continuous, 1392 integer (1392 binary)
Coefficient statistics:
  Matrix range     [5e-03, 8e+02]
  Objective range  [1e+00, 1e+00]
  Bounds range     [1e+03, 1e+03]
  RHS range        [1e+00, 1e+08]

MIP start from previous solve produced solution with objective 23361.7 (0.03s)
Loaded MIP start from previous solve with objective 23361.7


Explored 0 nodes (0 simplex iterations) in 0.03 seconds (0.04 work units)
Thread count was 1 (of 20 available processors)

Solution count 1: 23361.7 

Optimal solution found (tolerance 5.00e-02)
Best objective 2.336169491450e+04, best bound 2.400000000000e+04, gap 2.7323%

User-callback calls 36, time in user-callback 0.00 sec
Set parameter TimeLimit to value 7198
Gurobi Optimizer version 9.5.2 build v9.5.2rc0 (win64)
Thread count: 10 physical cores, 20 logical processors, using up to 20 threads
Optimize a model with 13239 rows, 4561 columns and 43209 nonzeros
Model fingerprint: 0xa12a7aaa
Variable types: 3121 continuous, 1440 integer (1440 binary)
Coefficient statistics:
  Matrix range     [5e-03, 8e+02]
  Objective range  [1e+00, 1e+00]
  Bounds range     [1e+03, 1e+03]
  RHS range        [1e+00, 1e+08]

MIP start from previous solve produced solution with objective 22824.7 (0.04s)
Loaded MIP start from previous solve with objective 22824.7

Presolve removed 1240 rows and 392 columns
Presolve time: 0.14s
Presolved: 11999 rows, 4169 columns, 39838 nonzeros
Variable types: 2909 continuous, 1260 integer (1260 binary)

Root relaxation: objective 2.400000e+04, 2840 iterations, 0.06 seconds (0.06 work units)

    Nodes    |    Current Node    |     Objective Bounds      |     Work
 Expl Unexpl |  Obj  Depth IntInf | Incumbent    BestBd   Gap | It/Node Time

*    0     0               0    24000.000000 24000.0000  0.00%     -    0s

Explored 1 nodes (6401 simplex iterations) in 0.32 seconds (0.41 work units)
Thread count was 20 (of 20 available processors)

Solution count 2: 24000 22824.7 

Optimal solution found (tolerance 5.00e-02)
Best objective 2.400000000000e+04, best bound 2.400000000000e+04, gap 0.0000%

User-callback calls 499, time in user-callback 0.00 sec
Gurobi Optimizer version 9.5.2 build v9.5.2rc0 (win64)
Thread count: 10 physical cores, 20 logical processors, using up to 20 threads
Optimize a model with 17068 rows, 5641 columns and 56162 nonzeros
Model fingerprint: 0x3a8caf60
Variable types: 4153 continuous, 1488 integer (1488 binary)
Coefficient statistics:
  Matrix range     [5e-03, 8e+02]
  Objective range  [1e+00, 1e+00]
  Bounds range     [1e+03, 1e+03]
  RHS range        [1e+00, 1e+08]

MIP start from previous solve did not produce a new incumbent solution

Presolve removed 1620 rows and 509 columns
Presolve time: 0.18s
Presolved: 15448 rows, 5132 columns, 50405 nonzeros
Variable types: 3869 continuous, 1263 integer (1260 binary)

Root relaxation: objective 2.400000e+04, 4805 iterations, 0.15 seconds (0.15 work units)

    Nodes    |    Current Node    |     Objective Bounds      |     Work
 Expl Unexpl |  Obj  Depth IntInf | Incumbent    BestBd   Gap | It/Node Time

     0     0 24000.0000    0    3          - 24000.0000      -     -    0s
H    0     0                    23991.111111 24000.0000  0.04%     -    0s

Explored 1 nodes (10494 simplex iterations) in 0.59 seconds (0.78 work units)
Thread count was 20 (of 20 available processors)

Solution count 1: 23991.1 

Optimal solution found (tolerance 5.00e-02)
Best objective 2.399111111111e+04, best bound 2.400000000000e+04, gap 0.0371%

User-callback calls 523, time in user-callback 0.00 sec
Set parameter TimeLimit to value 7197
Gurobi Optimizer version 9.5.2 build v9.5.2rc0 (win64)
Thread count: 10 physical cores, 20 logical processors, using up to 20 threads
Optimize a model with 20897 rows, 6721 columns and 69115 nonzeros
Model fingerprint: 0xc5ea67d2
Variable types: 5185 continuous, 1536 integer (1536 binary)
Coefficient statistics:
  Matrix range     [5e-03, 8e+02]
  Objective range  [1e+00, 1e+00]
  Bounds range     [1e+03, 1e+03]
  RHS range        [1e+00, 1e+08]

MIP start from previous solve did not produce a new incumbent solution

Presolve removed 2000 rows and 626 columns
Presolve time: 0.21s
Presolved: 18897 rows, 6095 columns, 61851 nonzeros
Variable types: 4832 continuous, 1263 integer (1260 binary)

Root relaxation: objective 2.400000e+04, 6963 iterations, 0.27 seconds (0.32 work units)

    Nodes    |    Current Node    |     Objective Bounds      |     Work
 Expl Unexpl |  Obj  Depth IntInf | Incumbent    BestBd   Gap | It/Node Time

     0     0 24000.0000    0    4          - 24000.0000      -     -    2s
H    0     0                    24000.000000 24000.0000  0.00%     -    2s

Explored 1 nodes (26454 simplex iterations) in 2.04 seconds (3.58 work units)
Thread count was 20 (of 20 available processors)

Solution count 1: 24000 

Optimal solution found (tolerance 5.00e-02)
Best objective 2.400000000000e+04, best bound 2.400000000000e+04, gap 0.0000%

User-callback calls 550, time in user-callback 0.00 sec
Set parameter TimeLimit to value 7194
Gurobi Optimizer version 9.5.2 build v9.5.2rc0 (win64)
Thread count: 10 physical cores, 20 logical processors, using up to 20 threads
Optimize a model with 24726 rows, 7801 columns and 82068 nonzeros
Model fingerprint: 0x1d65bac4
Variable types: 6217 continuous, 1584 integer (1584 binary)
Coefficient statistics:
  Matrix range     [5e-03, 8e+02]
  Objective range  [1e+00, 1e+00]
  Bounds range     [1e+03, 1e+03]
  RHS range        [1e+00, 1e+08]

MIP start from previous solve produced solution with objective 22922.1 (0.04s)
Loaded MIP start from previous solve with objective 22922.1


Explored 0 nodes (0 simplex iterations) in 0.04 seconds (0.05 work units)
Thread count was 1 (of 20 available processors)

Solution count 1: 22922.1 

Optimal solution found (tolerance 5.00e-02)
Best objective 2.292211111111e+04, best bound 2.400000000000e+04, gap 4.7024%

User-callback calls 44, time in user-callback 0.00 sec
Gurobi Optimizer version 9.5.2 build v9.5.2rc0 (win64)
Thread count: 10 physical cores, 20 logical processors, using up to 20 threads
Optimize a model with 28555 rows, 8881 columns and 95021 nonzeros
Model fingerprint: 0x42eab0d6
Variable types: 7249 continuous, 1632 integer (1632 binary)
Coefficient statistics:
  Matrix range     [5e-03, 8e+02]
  Objective range  [1e+00, 1e+00]
  Bounds range     [1e+03, 1e+03]
  RHS range        [1e+00, 1e+08]

MIP start from previous solve produced solution with objective 19377.2 (0.05s)
Loaded MIP start from previous solve with objective 19377.2

Presolve removed 2765 rows and 865 columns
Presolve time: 0.30s
Presolved: 25790 rows, 8016 columns, 84736 nonzeros
Variable types: 6753 continuous, 1263 integer (1260 binary)

Root relaxation: objective 2.400000e+04, 11150 iterations, 0.54 seconds (0.64 work units)

    Nodes    |    Current Node    |     Objective Bounds      |     Work
 Expl Unexpl |  Obj  Depth IntInf | Incumbent    BestBd   Gap | It/Node Time

     0     0 24000.0000    0    4 19377.2289 24000.0000  23.9%     -    2s
H    0     0                    23996.111111 24000.0000  0.02%     -    2s

Explored 1 nodes (27205 simplex iterations) in 2.11 seconds (3.13 work units)
Thread count was 20 (of 20 available processors)

Solution count 2: 23996.1 19377.2 

Optimal solution found (tolerance 5.00e-02)
Best objective 2.399611111111e+04, best bound 2.400000000000e+04, gap 0.0162%

User-callback calls 598, time in user-callback 0.00 sec
Set parameter TimeLimit to value 7192
Gurobi Optimizer version 9.5.2 build v9.5.2rc0 (win64)
Thread count: 10 physical cores, 20 logical processors, using up to 20 threads
Optimize a model with 32384 rows, 9961 columns and 107974 nonzeros
Model fingerprint: 0x5a6fad99
Variable types: 8281 continuous, 1680 integer (1680 binary)
Coefficient statistics:
  Matrix range     [5e-03, 8e+02]
  Objective range  [1e+00, 1e+00]
  Bounds range     [1e+03, 1e+03]
  RHS range        [1e+00, 1e+08]

MIP start from previous solve did not produce a new incumbent solution

Presolve removed 3148 rows and 985 columns
Presolve time: 0.33s
Presolved: 29236 rows, 8976 columns, 96185 nonzeros
Variable types: 7713 continuous, 1263 integer (1260 binary)

Root relaxation: objective 2.400000e+04, 13043 iterations, 0.85 seconds (1.15 work units)

    Nodes    |    Current Node    |     Objective Bounds      |     Work
 Expl Unexpl |  Obj  Depth IntInf | Incumbent    BestBd   Gap | It/Node Time

     0     0 24000.0000    0    7          - 24000.0000      -     -    2s
H    0     0                    23961.111111 24000.0000  0.16%     -    2s

Explored 1 nodes (34674 simplex iterations) in 2.85 seconds (4.52 work units)
Thread count was 20 (of 20 available processors)

Solution count 1: 23961.1 

Optimal solution found (tolerance 5.00e-02)
Best objective 2.396111111111e+04, best bound 2.400000000000e+04, gap 0.1623%

User-callback calls 628, time in user-callback 0.00 sec
Set parameter TimeLimit to value 7188
Gurobi Optimizer version 9.5.2 build v9.5.2rc0 (win64)
Thread count: 10 physical cores, 20 logical processors, using up to 20 threads
Optimize a model with 36213 rows, 11041 columns and 120927 nonzeros
Model fingerprint: 0xd76cd73a
Variable types: 9313 continuous, 1728 integer (1728 binary)
Coefficient statistics:
  Matrix range     [5e-03, 8e+02]
  Objective range  [1e+00, 1e+00]
  Bounds range     [1e+03, 1e+03]
  RHS range        [1e+00, 1e+08]

MIP start from previous solve produced solution with objective 22756.7 (0.05s)
Loaded MIP start from previous solve with objective 22756.7

Presolve removed 3527 rows and 1101 columns
Presolve time: 0.35s
Presolved: 32686 rows, 9940 columns, 107642 nonzeros
Variable types: 8677 continuous, 1263 integer (1260 binary)

Root relaxation: objective 2.400000e+04, 16127 iterations, 1.26 seconds (2.04 work units)

    Nodes    |    Current Node    |     Objective Bounds      |     Work
 Expl Unexpl |  Obj  Depth IntInf | Incumbent    BestBd   Gap | It/Node Time

     0     0 24000.0000    0   28 22756.6667 24000.0000  5.46%     -    2s
H    0     0                    23666.111111 24000.0000  1.41%     -    2s

Explored 1 nodes (29936 simplex iterations) in 2.74 seconds (4.39 work units)
Thread count was 20 (of 20 available processors)

Solution count 2: 23666.1 22756.7 

Optimal solution found (tolerance 5.00e-02)
Best objective 2.366611111111e+04, best bound 2.400000000000e+04, gap 1.4108%

User-callback calls 652, time in user-callback 0.00 sec
Set parameter TimeLimit to value 7185
Gurobi Optimizer version 9.5.2 build v9.5.2rc0 (win64)
Thread count: 10 physical cores, 20 logical processors, using up to 20 threads
Optimize a model with 40042 rows, 12121 columns and 133880 nonzeros
Model fingerprint: 0x759e12f4
Variable types: 10345 continuous, 1776 integer (1776 binary)
Coefficient statistics:
  Matrix range     [5e-03, 8e+02]
  Objective range  [1e+00, 1e+00]
  Bounds range     [1e+03, 1e+03]
  RHS range        [1e+00, 1e+08]

MIP start from previous solve did not produce a new incumbent solution

Presolve removed 3910 rows and 1221 columns
Presolve time: 0.40s
Presolved: 36132 rows, 10900 columns, 119071 nonzeros
Variable types: 9637 continuous, 1263 integer (1260 binary)

Deterministic concurrent LP optimizer: primal and dual simplex (primal and dual model)
Showing first log only...

Root relaxation presolve removed 13 rows and 13 columns
Root relaxation presolved: 36119 rows, 10887 columns, 119045 nonzeros

Concurrent spin time: 0.04s

Solved with dual simplex (primal model)

Root relaxation: objective 2.400000e+04, 13902 iterations, 0.74 seconds (0.80 work units)
Total elapsed time = 5.11s

    Nodes    |    Current Node    |     Objective Bounds      |     Work
 Expl Unexpl |  Obj  Depth IntInf | Incumbent    BestBd   Gap | It/Node Time

     0     0 24000.0000    0   38          - 24000.0000      -     -    5s
H    0     0                    23034.933333 24000.0000  4.19%     -    5s

Explored 1 nodes (47969 simplex iterations) in 5.35 seconds (10.13 work units)
Thread count was 20 (of 20 available processors)

Solution count 1: 23034.9 

Optimal solution found (tolerance 5.00e-02)
Best objective 2.303493333333e+04, best bound 2.400000000000e+04, gap 4.1896%

User-callback calls 863, time in user-callback 0.00 sec
Set parameter TimeLimit to value 7180
Gurobi Optimizer version 9.5.2 build v9.5.2rc0 (win64)
Thread count: 10 physical cores, 20 logical processors, using up to 20 threads
Optimize a model with 43871 rows, 13201 columns and 146833 nonzeros
Model fingerprint: 0x9ad88f62
Variable types: 11377 continuous, 1824 integer (1824 binary)
Coefficient statistics:
  Matrix range     [5e-03, 8e+02]
  Objective range  [1e+00, 1e+00]
  Bounds range     [1e+03, 1e+03]
  RHS range        [1e+00, 1e+08]

MIP start from previous solve did not produce a new incumbent solution

Presolve removed 4291 rows and 1339 columns
Presolve time: 0.46s
Presolved: 39580 rows, 11862 columns, 130522 nonzeros
Variable types: 10599 continuous, 1263 integer (1260 binary)

Deterministic concurrent LP optimizer: primal and dual simplex (primal and dual model)
Showing first log only...

Root relaxation presolve removed 15 rows and 15 columns
Root relaxation presolved: 39565 rows, 11847 columns, 130492 nonzeros

Concurrent spin time: 0.00s

Solved with dual simplex (primal model)

Root relaxation: objective 2.400000e+04, 16573 iterations, 0.99 seconds (1.32 work units)
Total elapsed time = 5.12s

    Nodes    |    Current Node    |     Objective Bounds      |     Work
 Expl Unexpl |  Obj  Depth IntInf | Incumbent    BestBd   Gap | It/Node Time

     0     0 24000.0000    0   28          - 24000.0000      -     -    5s
H    0     0                    23327.777778 24000.0000  2.88%     -    5s

Explored 1 nodes (49740 simplex iterations) in 5.57 seconds (10.64 work units)
Thread count was 20 (of 20 available processors)

Solution count 1: 23327.8 

Optimal solution found (tolerance 5.00e-02)
Best objective 2.332777777778e+04, best bound 2.400000000000e+04, gap 2.8816%

User-callback calls 998, time in user-callback 0.00 sec
Set parameter TimeLimit to value 7174
Gurobi Optimizer version 9.5.2 build v9.5.2rc0 (win64)
Thread count: 10 physical cores, 20 logical processors, using up to 20 threads
Optimize a model with 47700 rows, 14281 columns and 159786 nonzeros
Model fingerprint: 0x0d914d28
Variable types: 12409 continuous, 1872 integer (1872 binary)
Coefficient statistics:
  Matrix range     [5e-03, 8e+02]
  Objective range  [1e+00, 1e+00]
  Bounds range     [1e+03, 1e+03]
  RHS range        [1e+00, 1e+08]

MIP start from previous solve did not produce a new incumbent solution

Presolve removed 4674 rows and 1459 columns
Presolve time: 0.51s
Presolved: 43026 rows, 12822 columns, 141957 nonzeros
Variable types: 11559 continuous, 1263 integer (1260 binary)

Deterministic concurrent LP optimizer: primal and dual simplex (primal and dual model)
Showing first log only...

Root relaxation presolve removed 15 rows and 15 columns
Root relaxation presolved: 43011 rows, 12807 columns, 141927 nonzeros

Concurrent spin time: 0.00s

Solved with dual simplex (primal model)

Root relaxation: objective 2.400000e+04, 17059 iterations, 1.02 seconds (1.21 work units)

    Nodes    |    Current Node    |     Objective Bounds      |     Work
 Expl Unexpl |  Obj  Depth IntInf | Incumbent    BestBd   Gap | It/Node Time

     0     0 24000.0000    0   22          - 24000.0000      -     -    4s
H    0     0                    23364.166667 24000.0000  2.72%     -    5s

Explored 1 nodes (46835 simplex iterations) in 5.07 seconds (9.17 work units)
Thread count was 20 (of 20 available processors)

Solution count 1: 23364.2 

Optimal solution found (tolerance 5.00e-02)
Best objective 2.336416666667e+04, best bound 2.400000000000e+04, gap 2.7214%

User-callback calls 1000, time in user-callback 0.00 sec
Set parameter TimeLimit to value 7168
Gurobi Optimizer version 9.5.2 build v9.5.2rc0 (win64)
Thread count: 10 physical cores, 20 logical processors, using up to 20 threads
Optimize a model with 51529 rows, 15361 columns and 172739 nonzeros
Model fingerprint: 0xbaba85eb
Variable types: 13441 continuous, 1920 integer (1920 binary)
Coefficient statistics:
  Matrix range     [5e-03, 8e+02]
  Objective range  [1e+00, 1e+00]
  Bounds range     [1e+03, 1e+03]
  RHS range        [1e+00, 1e+08]

MIP start from previous solve produced solution with objective 22432.2 (0.08s)
Loaded MIP start from previous solve with objective 22432.2

Presolve removed 5053 rows and 1575 columns
Presolve time: 0.53s
Presolved: 46476 rows, 13786 columns, 153411 nonzeros
Variable types: 12523 continuous, 1263 integer (1260 binary)

Deterministic concurrent LP optimizer: primal and dual simplex (primal and dual model)
Showing first log only...

Root relaxation presolve removed 19 rows and 19 columns
Root relaxation presolved: 46457 rows, 13767 columns, 153373 nonzeros

Concurrent spin time: 0.07s

Solved with dual simplex (primal model)

Root relaxation: objective 2.400000e+04, 21119 iterations, 1.52 seconds (2.39 work units)

    Nodes    |    Current Node    |     Objective Bounds      |     Work
 Expl Unexpl |  Obj  Depth IntInf | Incumbent    BestBd   Gap | It/Node Time

     0     0 24000.0000    0   25 22432.2222 24000.0000  6.99%     -    3s
H    0     0                    23706.111111 24000.0000  1.24%     -    4s

Explored 1 nodes (41859 simplex iterations) in 4.11 seconds (6.94 work units)
Thread count was 20 (of 20 available processors)

Solution count 2: 23706.1 22432.2 

Optimal solution found (tolerance 5.00e-02)
Best objective 2.370611111111e+04, best bound 2.400000000000e+04, gap 1.2397%

User-callback calls 1215, time in user-callback 0.00 sec
Set parameter TimeLimit to value 7164
Gurobi Optimizer version 9.5.2 build v9.5.2rc0 (win64)
Thread count: 10 physical cores, 20 logical processors, using up to 20 threads
Optimize a model with 55358 rows, 16441 columns and 185692 nonzeros
Model fingerprint: 0xbec7f120
Variable types: 14473 continuous, 1968 integer (1968 binary)
Coefficient statistics:
  Matrix range     [5e-03, 8e+02]
  Objective range  [1e+00, 1e+00]
  Bounds range     [1e+03, 1e+03]
  RHS range        [1e+00, 1e+08]

MIP start from previous solve produced solution with objective 22282.2 (0.09s)
Loaded MIP start from previous solve with objective 22282.2

Presolve removed 5437 rows and 1696 columns
Presolve time: 0.56s
Presolved: 49921 rows, 14745 columns, 164855 nonzeros
Variable types: 13482 continuous, 1263 integer (1260 binary)

Deterministic concurrent LP optimizer: primal and dual simplex (primal and dual model)
Showing first log only...

Root relaxation presolve removed 18 rows and 18 columns
Root relaxation presolved: 49903 rows, 14727 columns, 164819 nonzeros

Concurrent spin time: 0.04s

Solved with dual simplex (primal model)

Root relaxation: objective 2.400000e+04, 23281 iterations, 1.82 seconds (3.11 work units)

    Nodes    |    Current Node    |     Objective Bounds      |     Work
 Expl Unexpl |  Obj  Depth IntInf | Incumbent    BestBd   Gap | It/Node Time

     0     0 24000.0000    0   22 22282.2222 24000.0000  7.71%     -    4s
H    0     0                    23726.111111 24000.0000  1.15%     -    4s

Explored 1 nodes (43735 simplex iterations) in 4.69 seconds (7.98 work units)
Thread count was 20 (of 20 available processors)

Solution count 2: 23726.1 22282.2 

Optimal solution found (tolerance 5.00e-02)
Best objective 2.372611111111e+04, best bound 2.400000000000e+04, gap 1.1544%

User-callback calls 1360, time in user-callback 0.00 sec
Set parameter TimeLimit to value 7159
Gurobi Optimizer version 9.5.2 build v9.5.2rc0 (win64)
Thread count: 10 physical cores, 20 logical processors, using up to 20 threads
Optimize a model with 59187 rows, 17521 columns and 198645 nonzeros
Model fingerprint: 0xc2d52bb5
Variable types: 15505 continuous, 2016 integer (2016 binary)
Coefficient statistics:
  Matrix range     [5e-03, 8e+02]
  Objective range  [1e+00, 1e+00]
  Bounds range     [1e+03, 1e+03]
  RHS range        [1e+00, 1e+08]

MIP start from previous solve produced solution with objective 22646.1 (0.09s)
Loaded MIP start from previous solve with objective 22646.1

Presolve removed 5817 rows and 1813 columns
Presolve time: 0.60s
Presolved: 53370 rows, 15708 columns, 176307 nonzeros
Variable types: 14445 continuous, 1263 integer (1260 binary)

Deterministic concurrent LP optimizer: primal and dual simplex (primal and dual model)
Showing first log only...

Root relaxation presolve removed 21 rows and 21 columns
Root relaxation presolved: 53349 rows, 15687 columns, 176265 nonzeros

Concurrent spin time: 0.10s

Solved with dual simplex (primal model)

Root relaxation: objective 2.400000e+04, 26830 iterations, 2.94 seconds (6.28 work units)
Total elapsed time = 7.13s

    Nodes    |    Current Node    |     Objective Bounds      |     Work
 Expl Unexpl |  Obj  Depth IntInf | Incumbent    BestBd   Gap | It/Node Time

     0     0 24000.0000    0  149 22646.1111 24000.0000  5.98%     -    9s
H    0     0                    23341.111111 24000.0000  2.82%     -    9s

Explored 1 nodes (65271 simplex iterations) in 9.31 seconds (19.98 work units)
Thread count was 20 (of 20 available processors)

Solution count 2: 23341.1 22646.1 

Optimal solution found (tolerance 5.00e-02)
Best objective 2.334111111111e+04, best bound 2.400000000000e+04, gap 2.8229%

User-callback calls 1939, time in user-callback 0.00 sec
Set parameter TimeLimit to value 7149
Gurobi Optimizer version 9.5.2 build v9.5.2rc0 (win64)
Thread count: 10 physical cores, 20 logical processors, using up to 20 threads
Optimize a model with 63016 rows, 18601 columns and 211598 nonzeros
Model fingerprint: 0x0f0c500e
Variable types: 16537 continuous, 2064 integer (2064 binary)
Coefficient statistics:
  Matrix range     [5e-03, 8e+02]
  Objective range  [1e+00, 1e+00]
  Bounds range     [1e+03, 1e+03]
  RHS range        [1e+00, 1e+08]

MIP start from previous solve did not produce a new incumbent solution

Presolve removed 6199 rows and 1932 columns
Presolve time: 0.63s
Presolved: 56817 rows, 16669 columns, 187755 nonzeros
Variable types: 15406 continuous, 1263 integer (1260 binary)

Deterministic concurrent LP optimizer: primal and dual simplex (primal and dual model)
Showing first log only...

Root relaxation presolve removed 22 rows and 22 columns
Root relaxation presolved: 56795 rows, 16647 columns, 187711 nonzeros


Root simplex log...

Iteration    Objective       Primal Inf.    Dual Inf.      Time
   29828    1.8497084e+04   0.000000e+00   1.598008e+06      5s
Concurrent spin time: 0.51s

Solved with dual simplex (dual model)

Root relaxation: objective 2.400000e+04, 29888 iterations, 5.05 seconds (10.37 work units)
Total elapsed time = 10.01s

    Nodes    |    Current Node    |     Objective Bounds      |     Work
 Expl Unexpl |  Obj  Depth IntInf | Incumbent    BestBd   Gap | It/Node Time

     0     0 24000.0000    0  201          - 24000.0000      -     -   11s
H    0     0                    22201.296769 24000.0000  8.10%     -   11s
H    0     0                    22319.169591 23994.8394  7.51%     -   16s
H    0     0                    22646.296769 23994.8394  5.95%     -   16s
     0     0 23982.6234    0  283 22646.2968 23982.6234  5.90%     -   16s
H    0     0                    22883.058480 23982.6234  4.81%     -   17s

Cutting planes:
  Gomory: 1
  Implied bound: 5
  MIR: 85
  Flow cover: 99
  RLT: 12
  Relax-and-lift: 43

Explored 1 nodes (78905 simplex iterations) in 17.28 seconds (34.53 work units)
Thread count was 20 (of 20 available processors)

Solution count 4: 22883.1 22646.3 22319.2 22201.3 

Optimal solution found (tolerance 5.00e-02)
Best objective 2.288305847953e+04, best bound 2.398262338102e+04, gap 4.8051%

User-callback calls 3116, time in user-callback 0.00 sec
Set parameter TimeLimit to value 7132
Gurobi Optimizer version 9.5.2 build v9.5.2rc0 (win64)
Thread count: 10 physical cores, 20 logical processors, using up to 20 threads
Optimize a model with 66845 rows, 19681 columns and 224551 nonzeros
Model fingerprint: 0x9e75010e
Variable types: 17569 continuous, 2112 integer (2112 binary)
Coefficient statistics:
  Matrix range     [5e-03, 8e+02]
  Objective range  [1e+00, 1e+00]
  Bounds range     [1e+03, 1e+03]
  RHS range        [1e+00, 1e+08]

MIP start from previous solve produced solution with objective 21433.1 (0.10s)
Loaded MIP start from previous solve with objective 21433.1

Presolve removed 6585 rows and 2055 columns
Presolve time: 0.68s
Presolved: 60260 rows, 17626 columns, 199195 nonzeros
Variable types: 16363 continuous, 1263 integer (1260 binary)

Deterministic concurrent LP optimizer: primal and dual simplex (primal and dual model)
Showing first log only...

Root relaxation presolve removed 19 rows and 19 columns
Root relaxation presolved: 60241 rows, 17607 columns, 199157 nonzeros

Concurrent spin time: 0.00s

Solved with dual simplex (primal model)

Root relaxation: objective 2.390377e+04, 29197 iterations, 4.04 seconds (9.49 work units)
Total elapsed time = 7.11s

    Nodes    |    Current Node    |     Objective Bounds      |     Work
 Expl Unexpl |  Obj  Depth IntInf | Incumbent    BestBd   Gap | It/Node Time

     0     0 23903.7686    0  198 21433.0585 23903.7686  11.5%     -    9s
H    0     0                    22091.111111 23903.7686  8.21%     -    9s
H    0     0                    22449.336863 23892.8395  6.43%     -   11s
     0     0 23888.3433    0  277 22449.3369 23888.3433  6.41%     -   11s
     0     0 23833.4316    0  347 22449.3369 23833.4316  6.17%     -   12s
     0     0 23825.5989    0  311 22449.3369 23825.5989  6.13%     -   13s
     0     0 23824.1125    0  318 22449.3369 23824.1125  6.12%     -   13s
     0     0 23824.1125    0  318 22449.3369 23824.1125  6.12%     -   14s
     0     0 23824.1125    0  289 22449.3369 23824.1125  6.12%     -   14s
     0     0 23824.1125    0  292 22449.3369 23824.1125  6.12%     -   14s
H    0     0                    22489.900829 23785.1564  5.76%     -   15s
     0     0 23785.1564    0  251 22489.9008 23785.1564  5.76%     -   15s
H    0     0                    22644.722222 23785.1564  5.04%     -   15s
     0     0 23773.2139    0  228 22644.7222 23773.2139  4.98%     -   16s

Cutting planes:
  Gomory: 15
  Implied bound: 2
  MIR: 197
  Flow cover: 207
  RLT: 26
  Relax-and-lift: 182

Explored 1 nodes (87790 simplex iterations) in 16.19 seconds (32.64 work units)
Thread count was 20 (of 20 available processors)

Solution count 5: 22644.7 22489.9 22449.3 ... 21433.1

Optimal solution found (tolerance 5.00e-02)
Best objective 2.264472222222e+04, best bound 2.377321390995e+04, gap 4.9835%

User-callback calls 3064, time in user-callback 0.00 sec
Set parameter TimeLimit to value 7115
Gurobi Optimizer version 9.5.2 build v9.5.2rc0 (win64)
Thread count: 10 physical cores, 20 logical processors, using up to 20 threads
Optimize a model with 70674 rows, 20761 columns and 237504 nonzeros
Model fingerprint: 0xdb647e72
Variable types: 18601 continuous, 2160 integer (2160 binary)
Coefficient statistics:
  Matrix range     [5e-03, 8e+02]
  Objective range  [1e+00, 1e+00]
  Bounds range     [1e+03, 1e+03]
  RHS range        [1e+00, 1e+08]

MIP start from previous solve produced solution with objective 21664.4 (0.11s)
Loaded MIP start from previous solve with objective 21664.4

Presolve removed 6961 rows and 2168 columns
Presolve time: 0.72s
Presolved: 63713 rows, 18593 columns, 210655 nonzeros
Variable types: 17330 continuous, 1263 integer (1260 binary)

Deterministic concurrent LP optimizer: primal and dual simplex (primal and dual model)
Showing first log only...

Root relaxation presolve removed 26 rows and 26 columns
Root relaxation presolved: 63687 rows, 18567 columns, 210603 nonzeros


Root simplex log...

Iteration    Objective       Primal Inf.    Dual Inf.      Time
   27151    1.7902099e+04   0.000000e+00   1.072794e+05      5s
Concurrent spin time: 0.00s

Solved with dual simplex (primal model)

Root relaxation: objective 2.390377e+04, 33134 iterations, 4.20 seconds (9.41 work units)
Total elapsed time = 10.27s

    Nodes    |    Current Node    |     Objective Bounds      |     Work
 Expl Unexpl |  Obj  Depth IntInf | Incumbent    BestBd   Gap | It/Node Time

     0     0 23903.7686    0  242 21664.3964 23903.7686  10.3%     -   10s
H    0     0                    21866.805556 23903.7686  9.32%     -   11s
H    0     0                    22116.805556 23903.7686  8.08%     -   11s
H    0     0                    22247.957263 23859.8556  7.25%     -   14s
H    0     0                    22540.766422 23859.8556  5.85%     -   14s
     0     0 23833.2190    0  388 22540.7664 23833.2190  5.73%     -   14s
     0     0 23800.5283    0  371 22540.7664 23800.5283  5.59%     -   16s
     0     0 23800.0218    0  384 22540.7664 23800.0218  5.59%     -   16s
     0     0 23799.4851    0  374 22540.7664 23799.4851  5.58%     -   17s
     0     0 23768.6090    0  390 22540.7664 23768.6090  5.45%     -   17s
     0     0 23768.6090    0  396 22540.7664 23768.6090  5.45%     -   17s
     0     0 23768.6090    0  367 22540.7664 23768.6090  5.45%     -   18s
     0     0 23768.2025    0  368 22540.7664 23768.2025  5.45%     -   18s
     0     0 23768.2025    0  368 22540.7664 23768.2025  5.45%     -   18s
H    0     0                    22716.111111 23763.8384  4.61%     -   22s
H    0     0                    23065.391111 23763.8384  3.03%     -   22s
     0     0 23763.8384    0  449 23065.3911 23763.8384  3.03%     -   22s

Cutting planes:
  Gomory: 21
  Implied bound: 7
  MIR: 342
  Flow cover: 280
  RLT: 74
  Relax-and-lift: 276

Explored 1 nodes (108064 simplex iterations) in 22.04 seconds (47.05 work units)
Thread count was 20 (of 20 available processors)

Solution count 7: 23065.4 22716.1 22540.8 ... 21664.4

Optimal solution found (tolerance 5.00e-02)
Best objective 2.306539111111e+04, best bound 2.376383844485e+04, gap 3.0281%

User-callback calls 3103, time in user-callback 0.00 sec
Set parameter TimeLimit to value 7093
Gurobi Optimizer version 9.5.2 build v9.5.2rc0 (win64)
Thread count: 10 physical cores, 20 logical processors, using up to 20 threads
Optimize a model with 74503 rows, 21841 columns and 250457 nonzeros
Model fingerprint: 0x8bf5a578
Variable types: 19633 continuous, 2208 integer (2208 binary)
Coefficient statistics:
  Matrix range     [5e-03, 8e+02]
  Objective range  [1e+00, 1e+00]
  Bounds range     [1e+03, 1e+03]
  RHS range        [1e+00, 1e+08]

MIP start from previous solve produced solution with objective 22615.4 (0.12s)
Loaded MIP start from previous solve with objective 22615.4

Presolve removed 7344 rows and 2288 columns
Presolve time: 0.75s
Presolved: 67159 rows, 19553 columns, 222063 nonzeros
Variable types: 18290 continuous, 1263 integer (1260 binary)

Deterministic concurrent LP optimizer: primal and dual simplex (primal and dual model)
Showing first log only...

Root relaxation presolve removed 26 rows and 26 columns
Root relaxation presolved: 67133 rows, 19527 columns, 222011 nonzeros

Concurrent spin time: 0.01s

Solved with dual simplex (primal model)

Root relaxation: objective 2.390377e+04, 30160 iterations, 3.43 seconds (6.93 work units)
Total elapsed time = 7.18s

    Nodes    |    Current Node    |     Objective Bounds      |     Work
 Expl Unexpl |  Obj  Depth IntInf | Incumbent    BestBd   Gap | It/Node Time

     0     0 23903.7686    0  235 22615.3911 23903.7686  5.70%     -    9s
     0     0 23855.9671    0  423 22615.3911 23855.9671  5.49%     -   12s
     0     0 23804.0109    0  377 22615.3911 23804.0109  5.26%     -   14s
     0     0 23798.3955    0  391 22615.3911 23798.3955  5.23%     -   14s
     0     0 23790.1960    0  425 22615.3911 23790.1960  5.19%     -   15s
     0     0 23788.7158    0  420 22615.3911 23788.7158  5.19%     -   15s
     0     0 23788.5290    0  396 22615.3911 23788.5290  5.19%     -   15s
     0     0 23788.3041    0  391 22615.3911 23788.3041  5.19%     -   15s
     0     0 23788.3002    0  391 22615.3911 23788.3002  5.19%     -   15s
     0     0 23767.6052    0  486 22615.3911 23767.6052  5.09%     -   19s
     0     0 23761.1789    0  362 22615.3911 23761.1789  5.07%     -   19s
     0     0 23760.8264    0  358 22615.3911 23760.8264  5.06%     -   20s
H    0     0                    22741.111111 23760.2444  4.48%     -   20s
     0     0 23760.2444    0  344 22741.1111 23760.2444  4.48%     -   20s

Cutting planes:
  Gomory: 11
  Implied bound: 15
  MIR: 195
  Flow cover: 138
  RLT: 35
  Relax-and-lift: 254

Explored 1 nodes (99481 simplex iterations) in 20.27 seconds (41.49 work units)
Thread count was 20 (of 20 available processors)

Solution count 2: 22741.1 22615.4 

Optimal solution found (tolerance 5.00e-02)
Best objective 2.274111111111e+04, best bound 2.376024437078e+04, gap 4.4815%

User-callback calls 2722, time in user-callback 0.00 sec
Set parameter TimeLimit to value 7069
Gurobi Optimizer version 9.5.2 build v9.5.2rc0 (win64)
Thread count: 10 physical cores, 20 logical processors, using up to 20 threads
Optimize a model with 78332 rows, 22921 columns and 263410 nonzeros
Model fingerprint: 0x9069df52
Variable types: 20665 continuous, 2256 integer (2256 binary)
Coefficient statistics:
  Matrix range     [5e-03, 8e+02]
  Objective range  [1e+00, 1e+00]
  Bounds range     [1e+03, 1e+03]
  RHS range        [1e+00, 1e+08]

MIP start from previous solve produced solution with objective 22561.1 (0.12s)
Loaded MIP start from previous solve with objective 22561.1

Presolve removed 7728 rows and 2409 columns
Presolve time: 0.79s
Presolved: 70604 rows, 20512 columns, 233505 nonzeros
Variable types: 19249 continuous, 1263 integer (1260 binary)

Deterministic concurrent LP optimizer: primal and dual simplex (primal and dual model)
Showing first log only...

Root relaxation presolve removed 25 rows and 25 columns
Root relaxation presolved: 70579 rows, 20487 columns, 233455 nonzeros


Root simplex log...

Iteration    Objective       Primal Inf.    Dual Inf.      Time
   30116    1.9699731e+04   0.000000e+00   2.081639e+05      5s
Concurrent spin time: 0.01s

Solved with dual simplex (primal model)

Root relaxation: objective 2.390377e+04, 32576 iterations, 4.47 seconds (10.51 work units)

    Nodes    |    Current Node    |     Objective Bounds      |     Work
 Expl Unexpl |  Obj  Depth IntInf | Incumbent    BestBd   Gap | It/Node Time

     0     0 23903.7686    0  221 22561.1111 23903.7686  5.95%     -   10s
     0     0 23796.3302    0  424 22561.1111 23796.3302  5.47%     -   15s
     0     0 23796.3302    0  362 22561.1111 23796.3302  5.47%     -   16s
     0     0 23769.1584    0  356 22561.1111 23769.1584  5.35%     -   16s
     0     0 23768.9665    0  329 22561.1111 23768.9665  5.35%     -   16s
     0     0 23768.9665    0  333 22561.1111 23768.9665  5.35%     -   16s
     0     0 23768.9665    0  331 22561.1111 23768.9665  5.35%     -   16s
     0     0 23768.9665    0  331 22561.1111 23768.9665  5.35%     -   17s
     0     0 23767.1087    0  315 22561.1111 23767.1087  5.35%     -   18s
H    0     0                    23116.111111 23765.9027  2.81%     -   20s
     0     0 23765.9027    0  317 23116.1111 23765.9027  2.81%     -   20s
